(set-option :smt.threads 2)
(set-option :smt.random_seed 2)
(declare-sort e )
(declare-fun s () ( set e ))
(declare-fun t () ( set e ))
(declare-fun u () ( set e ))
(assert (< (card (union s t )) 13 (card (union s u)) 215))
(assert (<= (card s) 48))
(check-sat)